webassembly/ejemplos_dzn/14/folder14_json_94.dzn
TERM = { '.', 's(2)', 's(5)', 's(4)', 'in_1', 'local_0', 'local_1', 'in_2', 'in_4', 'in_3', 's(1)', 's(0)', 's(3)', 'in_0'};
null = '.';
s = 14;
n = 12;
ndeps = 6;
max_registers_sz = 5;
NR = 2;
registers = [|'local_0', 'in_1', |'local_1', 's(1)'|];
dependencies = [|'i32.load_1', 'call[function_index(0)]_6', |'call[function_index(0)]_6', 'i32.store16_9', |'i32.store16_9', 'i32.load8_u_11', |'i32.store_12', 'i32.store_13', |'i32.load8_s_2', 'call[function_index(0)]_6', |'i32.load8_u_11', 'i32.store_12'|];
GET_ENUM = { GET1, GET2, GET3, GET4, GET5, GET6, GET7};
SET_ENUM = { SET1, SET2, SET3, SET4, SET5, SET6, SET7};
TEE_ENUM = { TEE1, TEE2, TEE3, TEE4, TEE5, TEE6, TEE7};
N = 8;
OP = { 'call[function_index(0)]_6', 'i32.const_0', 'i32.load_1', 'i32.load8_s_2', 'i32.store16_9', 'i32.load8_u_11', 'i32.store_12', 'i32.store_13' };
in_ops = [0, 0, 1, 1, 2, 1, 2, 2 ];
out_ops = [2, 1, 1, 1, 0, 1, 0, 0 ];
in1 = ['.', '.', 's(5)', 's(0)', 's(2)', 'in_1', 's(4)', 'in_3' ];
in2 = ['.', '.', '.', '.', 'in_0', '.', 'in_2', 'in_4' ];
in3 = ['.', '.', '.', '.', '.', '.', '.', '.' ];
out1 = ['s(3)', 's(5)', 's(0)', 's(1)', '.', 's(4)', '.', '.' ];
out2 = ['s(2)', '.', '.', '.', '.', '.', '.', '.' ];
out3 = ['.', '.', '.', '.', '.', '.', '.', '.' ];
comm = [false, false, false, false, false, false, false, false ];
gas = [1, 1, 1, 1, 1, 1, 1, 1 ];
sz = [1, 1, 1, 1, 1, 1, 1, 1 ];
stor = [true, false, false, false, true, false, true, true ];
lb = [ 1, 1, 1, 1, 1, 1, 1, 1 ];
ub = [ 14, 14, 14, 14, 14, 14, 14, 14 ];
startstack = [ 'in_0', 'in_1', 'in_2', 'in_3', 'in_4', null, null, null, null, null, null, null ];
endstack = [ null, null, null, null, null, null, null, null, null, null, null, null ];
